block_table_value:
[[1 1 1 1 0 0 0 0]
 [1 1 1 1 0 0 0 0]
 [1 1 1 1 0 0 0 0]
 [1 1 1 1 0 0 0 0]
 [1 1 1 1 1 1 1 1]
 [1 1 1 1 1 1 1 1]
 [1 1 1 1 1 1 1 1]
 [1 1 1 1 1 1 1 1]]
Set parameter Username
Set parameter LicenseID to value 2603695
Academic license - for non-commercial use only - expires 2025-12-26
Gurobi Optimizer version 11.0.3 build v11.0.3rc0 (linux64 - "Debian GNU/Linux 12 (bookworm)")

CPU model: Intel(R) Xeon(R) Gold 6252 CPU @ 2.10GHz, instruction set [SSE2|AVX|AVX2|AVX512]
Thread count: 48 physical cores, 96 logical processors, using up to 32 threads

Optimize a model with 752 rows, 497 columns and 2272 nonzeros
Model fingerprint: 0x02ea1a82
Variable types: 0 continuous, 497 integer (320 binary)
Coefficient statistics:
  Matrix range     [1e+00, 2e+00]
  Objective range  [1e+00, 1e+00]
  Bounds range     [1e+00, 1e+00]
  RHS range        [1e+00, 5e+00]
Presolve removed 112 rows and 48 columns
Presolve time: 0.01s
Presolved: 640 rows, 449 columns, 2048 nonzeros
Variable types: 0 continuous, 449 integer (432 binary)
Found heuristic solution: objective 14.0000000
Found heuristic solution: objective 13.0000000

Root relaxation: objective 3.500000e+00, 911 iterations, 0.02 seconds (0.02 work units)

    Nodes    |    Current Node    |     Objective Bounds      |     Work
 Expl Unexpl |  Obj  Depth IntInf | Incumbent    BestBd   Gap | It/Node Time

     0     0    3.50000    0  449   13.00000    3.50000  73.1%     -    0s
H    0     0                      12.0000000    3.50000  70.8%     -    0s
H    0     0                      11.0000000    3.50000  68.2%     -    0s
     0     0    4.21636    0  424   11.00000    4.21636  61.7%     -    0s
H    0     0                      10.0000000    5.00000  50.0%     -    0s
H    0     0                       9.0000000    5.00000  44.4%     -    0s
     0     0    5.00000    0  317    9.00000    5.00000  44.4%     -    0s
     0     0    5.00000    0  308    9.00000    5.00000  44.4%     -    0s
     0     0    5.00000    0  323    9.00000    5.00000  44.4%     -    0s
     0     0    5.00000    0  283    9.00000    5.00000  44.4%     -    0s
     0     0    5.00000    0  283    9.00000    5.00000  44.4%     -    0s
     0     0    5.00625    0  372    9.00000    5.00625  44.4%     -    0s
     0     0    5.03053    0  352    9.00000    5.03053  44.1%     -    0s
H    0     0                       8.0000000    5.03674  37.0%     -    0s
     0     0    5.03674    0  370    8.00000    5.03674  37.0%     -    0s
     0     0    5.03716    0  354    8.00000    5.03716  37.0%     -    0s
     0     0    5.03862    0  379    8.00000    5.03862  37.0%     -    0s
     0     0    5.07143    0  363    8.00000    5.07143  36.6%     -    0s
     0     0    5.07143    0  365    8.00000    5.07143  36.6%     -    0s
     0     0    5.07143    0  381    8.00000    5.07143  36.6%     -    0s
     0     0    5.07143    0  376    8.00000    5.07143  36.6%     -    0s
     0     1    6.00000    0  376    8.00000    6.00000  25.0%     -    1s
H  176   152                       7.0000000    6.00000  14.3%   210    3s

Cutting planes:
  Cover: 2
  MIR: 54
  Zero half: 4
  RLT: 86

Explored 515 nodes (100480 simplex iterations) in 3.66 seconds (3.92 work units)
Thread count was 32 (of 96 available processors)

Solution count 8: 7 8 9 ... 14

Optimal solution found (tolerance 1.00e-04)
Best objective 7.000000000000e+00, best bound 7.000000000000e+00, gap 0.0000%
LP solve time: 3.6667494773864746 s
Optimal value: 7.0
LP result:
x_0_1_0: 0.0
x_0_1_1: 0.0
x_0_1_2: 1.0
x_0_1_3: -0.0
x_0_1_4: -0.0
x_0_1_5: 0.0
x_0_1_6: -0.0
x_0_1_7: 0.0
x_0_2_0: 0.0
x_0_2_1: 0.0
x_0_2_2: 1.0
x_0_2_3: -0.0
x_0_2_4: -0.0
x_0_2_5: 0.0
x_0_2_6: -0.0
x_0_2_7: 0.0
x_0_3_0: 1.0
x_0_3_1: 0.0
x_0_3_2: 0.0
x_0_3_3: 0.0
x_0_3_4: -0.0
x_0_3_5: -0.0
x_0_3_6: -0.0
x_0_3_7: 0.0
x_1_0_0: 1.0
x_1_0_1: 0.0
x_1_0_2: 0.0
x_1_0_3: 0.0
x_1_0_4: -0.0
x_1_0_5: 0.0
x_1_0_6: 0.0
x_1_0_7: 0.0
x_1_2_0: 0.0
x_1_2_1: 1.0
x_1_2_2: 0.0
x_1_2_3: -0.0
x_1_2_4: -0.0
x_1_2_5: 0.0
x_1_2_6: 0.0
x_1_2_7: 0.0
x_1_3_0: 1.0
x_1_3_1: -0.0
x_1_3_2: -0.0
x_1_3_3: -0.0
x_1_3_4: -0.0
x_1_3_5: -0.0
x_1_3_6: -0.0
x_1_3_7: -0.0
x_2_0_0: 1.0
x_2_0_1: 0.0
x_2_0_2: 0.0
x_2_0_3: -0.0
x_2_0_4: -0.0
x_2_0_5: 0.0
x_2_0_6: 0.0
x_2_0_7: 0.0
x_2_1_0: 0.0
x_2_1_1: 0.0
x_2_1_2: 1.0
x_2_1_3: -0.0
x_2_1_4: -0.0
x_2_1_5: 0.0
x_2_1_6: 0.0
x_2_1_7: 0.0
x_2_3_0: 1.0
x_2_3_1: 0.0
x_2_3_2: 0.0
x_2_3_3: 0.0
x_2_3_4: -0.0
x_2_3_5: -0.0
x_2_3_6: 0.0
x_2_3_7: 0.0
x_3_0_0: 0.0
x_3_0_1: 0.0
x_3_0_2: 0.0
x_3_0_3: 1.0
x_3_0_4: -0.0
x_3_0_5: 0.0
x_3_0_6: 0.0
x_3_0_7: -0.0
x_3_1_0: 0.0
x_3_1_1: 1.0
x_3_1_2: 0.0
x_3_1_3: -0.0
x_3_1_4: -0.0
x_3_1_5: 0.0
x_3_1_6: 0.0
x_3_1_7: -0.0
x_3_2_0: 0.0
x_3_2_1: 1.0
x_3_2_2: 0.0
x_3_2_3: -0.0
x_3_2_4: -0.0
x_3_2_5: 0.0
x_3_2_6: 0.0
x_3_2_7: -0.0
x_4_0_0: 0.0
x_4_0_1: -0.0
x_4_0_2: 0.0
x_4_0_3: 0.0
x_4_0_4: 0.0
x_4_0_5: 0.0
x_4_0_6: 0.0
x_4_0_7: 1.0
x_4_1_0: 0.0
x_4_1_1: 0.0
x_4_1_2: 0.0
x_4_1_3: -0.0
x_4_1_4: 0.0
x_4_1_5: 1.0
x_4_1_6: 0.0
x_4_1_7: 0.0
x_4_2_0: 0.0
x_4_2_1: 0.0
x_4_2_2: 0.0
x_4_2_3: -0.0
x_4_2_4: 1.0
x_4_2_5: 0.0
x_4_2_6: 0.0
x_4_2_7: 0.0
x_4_3_0: 0.0
x_4_3_1: 0.0
x_4_3_2: 0.0
x_4_3_3: 0.0
x_4_3_4: 1.0
x_4_3_5: -0.0
x_4_3_6: 0.0
x_4_3_7: 0.0
x_4_5_0: 0.0
x_4_5_1: 0.0
x_4_5_2: 0.0
x_4_5_3: 0.0
x_4_5_4: 0.0
x_4_5_5: 1.0
x_4_5_6: 0.0
x_4_5_7: 0.0
x_4_6_0: -0.0
x_4_6_1: 0.0
x_4_6_2: 0.0
x_4_6_3: 0.0
x_4_6_4: 0.0
x_4_6_5: 1.0
x_4_6_6: 0.0
x_4_6_7: 0.0
x_4_7_0: 0.0
x_4_7_1: 0.0
x_4_7_2: 0.0
x_4_7_3: 0.0
x_4_7_4: 0.0
x_4_7_5: 0.0
x_4_7_6: 0.0
x_4_7_7: 1.0
x_5_0_0: 0.0
x_5_0_1: 0.0
x_5_0_2: 0.0
x_5_0_3: -0.0
x_5_0_4: 0.0
x_5_0_5: 0.0
x_5_0_6: 0.0
x_5_0_7: 1.0
x_5_1_0: 0.0
x_5_1_1: 0.0
x_5_1_2: 0.0
x_5_1_3: -0.0
x_5_1_4: 0.0
x_5_1_5: 1.0
x_5_1_6: 0.0
x_5_1_7: 0.0
x_5_2_0: 0.0
x_5_2_1: 0.0
x_5_2_2: 0.0
x_5_2_3: -0.0
x_5_2_4: 1.0
x_5_2_5: 0.0
x_5_2_6: 0.0
x_5_2_7: 0.0
x_5_3_0: 0.0
x_5_3_1: 0.0
x_5_3_2: 0.0
x_5_3_3: -0.0
x_5_3_4: 1.0
x_5_3_5: -0.0
x_5_3_6: 0.0
x_5_3_7: 0.0
x_5_4_0: 0.0
x_5_4_1: 0.0
x_5_4_2: 0.0
x_5_4_3: -0.0
x_5_4_4: 1.0
x_5_4_5: 0.0
x_5_4_6: 0.0
x_5_4_7: 0.0
x_5_6_0: -0.0
x_5_6_1: 0.0
x_5_6_2: 0.0
x_5_6_3: -0.0
x_5_6_4: 0.0
x_5_6_5: 1.0
x_5_6_6: 0.0
x_5_6_7: 0.0
x_5_7_0: 0.0
x_5_7_1: 0.0
x_5_7_2: 0.0
x_5_7_3: -0.0
x_5_7_4: 0.0
x_5_7_5: 0.0
x_5_7_6: 0.0
x_5_7_7: 1.0
x_6_0_0: 0.0
x_6_0_1: -0.0
x_6_0_2: 0.0
x_6_0_3: 1.0
x_6_0_4: -0.0
x_6_0_5: 0.0
x_6_0_6: 0.0
x_6_0_7: 0.0
x_6_1_0: 0.0
x_6_1_1: -0.0
x_6_1_2: 1.0
x_6_1_3: -0.0
x_6_1_4: -0.0
x_6_1_5: 0.0
x_6_1_6: 0.0
x_6_1_7: 0.0
x_6_2_0: 0.0
x_6_2_1: -0.0
x_6_2_2: 1.0
x_6_2_3: -0.0
x_6_2_4: -0.0
x_6_2_5: 0.0
x_6_2_6: 0.0
x_6_2_7: 0.0
x_6_3_0: 0.0
x_6_3_1: -0.0
x_6_3_2: 0.0
x_6_3_3: 1.0
x_6_3_4: -0.0
x_6_3_5: -0.0
x_6_3_6: 0.0
x_6_3_7: 0.0
x_6_4_0: 0.0
x_6_4_1: -0.0
x_6_4_2: 0.0
x_6_4_3: 0.0
x_6_4_4: -0.0
x_6_4_5: 0.0
x_6_4_6: 1.0
x_6_4_7: 0.0
x_6_5_0: 0.0
x_6_5_1: -0.0
x_6_5_2: 0.0
x_6_5_3: 0.0
x_6_5_4: -0.0
x_6_5_5: 0.0
x_6_5_6: 1.0
x_6_5_7: 0.0
x_6_7_0: 0.0
x_6_7_1: -0.0
x_6_7_2: 0.0
x_6_7_3: 1.0
x_6_7_4: -0.0
x_6_7_5: 0.0
x_6_7_6: 0.0
x_6_7_7: 0.0
x_7_0_0: 0.0
x_7_0_1: 0.0
x_7_0_2: 0.0
x_7_0_3: 0.0
x_7_0_4: -0.0
x_7_0_5: -0.0
x_7_0_6: 0.0
x_7_0_7: 1.0
x_7_1_0: -0.0
x_7_1_1: 1.0
x_7_1_2: -0.0
x_7_1_3: -0.0
x_7_1_4: -0.0
x_7_1_5: -0.0
x_7_1_6: -0.0
x_7_1_7: -0.0
x_7_2_0: 0.0
x_7_2_1: 1.0
x_7_2_2: 0.0
x_7_2_3: -0.0
x_7_2_4: -0.0
x_7_2_5: -0.0
x_7_2_6: 0.0
x_7_2_7: 0.0
x_7_3_0: 0.0
x_7_3_1: 0.0
x_7_3_2: 0.0
x_7_3_3: 1.0
x_7_3_4: -0.0
x_7_3_5: -0.0
x_7_3_6: 0.0
x_7_3_7: 0.0
x_7_4_0: 0.0
x_7_4_1: 0.0
x_7_4_2: 0.0
x_7_4_3: 0.0
x_7_4_4: -0.0
x_7_4_5: -0.0
x_7_4_6: 1.0
x_7_4_7: 0.0
x_7_5_0: 0.0
x_7_5_1: 0.0
x_7_5_2: 0.0
x_7_5_3: 0.0
x_7_5_4: -0.0
x_7_5_5: -0.0
x_7_5_6: 1.0
x_7_5_7: 0.0
x_7_6_0: -0.0
x_7_6_1: 0.0
x_7_6_2: 0.0
x_7_6_3: 0.0
x_7_6_4: -0.0
x_7_6_5: -0.0
x_7_6_6: 1.0
x_7_6_7: 0.0
a_0_0: 1.0
a_0_1: 1.0
a_0_2: 1.0
a_0_3: 0.0
a_0_4: 0.0
a_0_5: 0.0
a_0_6: 0.0
a_0_7: 0.0
a_1_0: 0.0
a_1_1: 1.0
a_1_2: 0.0
a_1_3: 1.0
a_1_4: 0.0
a_1_5: 0.0
a_1_6: -0.0
a_1_7: 1.0
a_2_0: 1.0
a_2_1: 0.0
a_2_2: 1.0
a_2_3: 0.0
a_2_4: 0.0
a_2_5: 0.0
a_2_6: 1.0
a_2_7: 0.0
a_3_0: 0.0
a_3_1: 0.0
a_3_2: 0.0
a_3_3: 1.0
a_3_4: 0.0
a_3_5: -0.0
a_3_6: 1.0
a_3_7: 1.0
a_4_0: -0.0
a_4_1: -0.0
a_4_2: -0.0
a_4_3: -0.0
a_4_4: 1.0
a_4_5: 1.0
a_4_6: -0.0
a_4_7: -0.0
a_5_0: 0.0
a_5_1: 0.0
a_5_2: 0.0
a_5_3: 0.0
a_5_4: 1.0
a_5_5: 1.0
a_5_6: 0.0
a_5_7: -0.0
a_6_0: -0.0
a_6_1: 0.0
a_6_2: 0.0
a_6_3: 0.0
a_6_4: 0.0
a_6_5: 0.0
a_6_6: 1.0
a_6_7: 1.0
a_7_0: 0.0
a_7_1: 0.0
a_7_2: 0.0
a_7_3: -0.0
a_7_4: 1.0
a_7_5: 1.0
a_7_6: 0.0
a_7_7: 1.0
b_0_0: 1.0
b_0_1: 0.0
b_0_2: 0.0
b_0_3: 1.0
b_0_4: 0.0
b_0_5: 0.0
b_0_6: -0.0
b_0_7: 0.0
b_1_0: 0.0
b_1_1: 1.0
b_1_2: 1.0
b_1_3: 0.0
b_1_4: 0.0
b_1_5: 0.0
b_1_6: 0.0
b_1_7: 0.0
b_2_0: 0.0
b_2_1: 1.0
b_2_2: 1.0
b_2_3: 0.0
b_2_4: 0.0
b_2_5: 0.0
b_2_6: 0.0
b_2_7: 0.0
b_3_0: 1.0
b_3_1: -0.0
b_3_2: -0.0
b_3_3: 1.0
b_3_4: 0.0
b_3_5: 0.0
b_3_6: 0.0
b_3_7: 1.0
b_4_0: 0.0
b_4_1: 0.0
b_4_2: 1.0
b_4_3: 1.0
b_4_4: 1.0
b_4_5: 0.0
b_4_6: 0.0
b_4_7: 0.0
b_5_0: 0.0
b_5_1: 1.0
b_5_2: 0.0
b_5_3: -0.0
b_5_4: 0.0
b_5_5: 1.0
b_5_6: 1.0
b_5_7: 0.0
b_6_0: 0.0
b_6_1: 0.0
b_6_2: 0.0
b_6_3: 0.0
b_6_4: 1.0
b_6_5: 1.0
b_6_6: 1.0
b_6_7: 0.0
b_7_0: 1.0
b_7_1: 0.0
b_7_2: 0.0
b_7_3: 0.0
b_7_4: 0.0
b_7_5: 0.0
b_7_6: 0.0
b_7_7: 1.0
A_0: 2.0
B_0: 1.0
C_0: 1.0
D_0: 2.0
Cin_0: 5.0
Cout_0: 7.0
A_1: 2.0
B_1: 1.0
C_1: 1.0
D_1: 2.0
Cin_1: 5.0
Cout_1: 7.0
A_2: 2.0
B_2: 1.0
C_2: 1.0
D_2: 2.0
Cin_2: 5.0
Cout_2: 7.0
A_3: 2.0
B_3: 2.0
C_3: 1.0
D_3: 2.0
Cin_3: 7.0
Cout_3: 7.0
A_4: 1.0
B_4: 2.0
C_4: 2.0
D_4: 1.0
Cin_4: 7.0
Cout_4: 5.0
A_5: 1.0
B_5: 2.0
C_5: 2.0
D_5: 1.0
Cin_5: 7.0
Cout_5: 5.0
A_6: 1.0
B_6: 2.0
C_6: 2.0
D_6: 1.0
Cin_6: 7.0
Cout_6: 5.0
A_7: 2.0
B_7: 1.0
C_7: 3.0
D_7: 1.0
Cin_7: 7.0
Cout_7: 7.0
Comm_Volume: 7.0
Allocation Matrix:
0  2  2  0  /  /  /  /  
0  1  1  0  /  /  /  /  
0  2  2  0  /  /  /  /  
3  1  1  3  /  /  /  /  
7  5  4  4  4  5  5  7  
7  5  4  4  4  5  5  7  
3  2  2  3  6  6  6  3  
7  1  1  3  6  6  6  7  
